(declare-const |return@width':30| Int)
(declare-const |K:35| Int)
(declare-const |x':27| Int)
(declare-const return@width Int)
(declare-const return Int)
(declare-const |return@pos':29| Int)
(declare-const |return':28| Int)
(declare-const return@pos Int)
(assert (and (= |K:35| 0) (= (+ (- |return@width':30|) return@width) 0)
               (= (+ (- |return@pos':29|) return@pos) 0)
               (= (+ (- |return':28|) return) 0) (= (- |x':27|) 0)
               (<= (- |K:35|) 0) (= |x':27| 0) (= |x':27| 0)))
(check-sat)
